sat
(
(define-fun J () String "")
(define-fun H () String "")
(define-fun I () String "")
(define-fun F () String "a")
(define-fun G () String "")
(define-fun L () String "")
(define-fun M () String "")
(define-fun P () String "")
(define-fun Q () String "aa")
)
